param N:= 7;
param T:= 20;
param no_of_lats:= 8;
param no_of_longs:= 8;

param connected: 1 2 3 4 5 6 7:=
1 0 0 1 0 0 0 1
2 1 0 0 0 0 0 0
3 0 1 0 0 0 0 0
4 1 0 0 0 1 1 0
5 0 0 0 0 0 0 1
6 0 0 0 0 0 0 1
7 0 0 0 0 1 0 0;

param city_coordinates: 1 2:=
1 3 3
2 2 6
3 4 7
4 5 5
5 7 4
6 7 9
7 9 6;

param bad_weather: 1 2 3 4 5 6 7 8 9 10:=
1  0 0 0 0 0 0 0 0 0 0
2  0 0 0 0 0 0 0 1 0 0
3  0 1 0 0 1 0 0 0 0 0
4  0 0 0 0 0 0 0 0 0 0
5  0 0 0 0 0 0 0 0 1 0
6  0 0 1 0 0 0 1 0 0 0
7  0 0 0 0 0 0 0 0 0 0
8  0 0 0 0 1 0 0 0 0 0
9  0 0 1 0 0 0 0 0 0 0
10 0 0 0 0 0 0 0 0 0 0;